(declare-const X String)
; \.exe\s+v2\x2E0\s+smrtshpr-cs-
(assert (not (str.in_re X (re.++ (str.to_re ".exe") (re.+ (re.union (str.to_re " ") (str.to_re "\u{9}") (str.to_re "\u{a}") (str.to_re "\u{c}") (str.to_re "\u{d}"))) (str.to_re "v2.0") (re.+ (re.union (str.to_re " ") (str.to_re "\u{9}") (str.to_re "\u{a}") (str.to_re "\u{c}") (str.to_re "\u{d}"))) (str.to_re "smrtshpr-cs-\u{13}\u{a}")))))
; Points\d+Host\x3a\dBasicwww\x2Ewebcruiser\x2Ecc
(assert (str.in_re X (re.++ (str.to_re "Points") (re.+ (re.range "0" "9")) (str.to_re "Host:") (re.range "0" "9") (str.to_re "Basicwww.webcruiser.cc\u{a}"))))
(check-sat)
